
%FILE DATA:	Soccer Computational Problem for MiniZinc Models	%
%AUTHOR:	Jack Wall	%
%CONTACT:  	116397063@umail.ucc.ie			%
%LAST UPDATE:	03/03/2020, 12:08:58						%
%DESCRIPTION: 	32 games played with 24 games left				%


n=8; %number of teams

%Games to play
games=[|5,7|2,8|4,6|3,4|3,5|3,8|1,3|2,7|2,4|3,7|6,2|3,6|7,5|5,1|3,2|4,3|1,5|1,6|5,6|8,5|6,4|6,8|4,1|8,6|];

%Initial points
iPoints=[10,7,5,16,10,16,18,7];

%POSITION CONSTRAINTS
% [|teamID, operator, position|...]
% operators index:
%  1 for =  operator
%  2 for >  operator
%  3 for >= operator
%  4 for <  operator
%  5 for <= operator
positionConstraints=[|6,1,1|7,4,3|4,5,3|1,5,4|];